N = 80;
W = 100;
H = 100;
ItemWidth = [ 21, 45, 69, 31, 49, 38, 33, 81, 57, 68, 85, 37, 3, 39, 54, 73, 97, 79, 79, 71, 39, 78, 72, 73, 94, 84, 13, 89, 76, 13, 100, 77, 72, 85, 94, 91, 78, 78, 93, 94, 98, 89, 88, 96, 67, 23, 79, 31, 73, 85, 70, 77, 97, 68, 67, 88, 82, 86, 78, 28, 80, 77, 4, 90, 45, 90, 100, 69, 86, 66, 87, 92, 72, 80, 87, 89, 69, 89, 87, 38 ];
ItemHeight = [ 100, 99, 97, 92, 91, 86, 81, 81, 80, 80, 78, 78, 74, 66, 56, 55, 53, 51, 50, 49, 49, 49, 48, 48, 44, 44, 44, 42, 42, 40, 39, 38, 38, 37, 37, 36, 35, 35, 33, 33, 33, 32, 32, 32, 29, 29, 29, 28, 28, 27, 27, 25, 23, 22, 22, 20, 20, 20, 19, 19, 19, 19, 16, 16, 14, 14, 13, 13, 12, 12, 12, 9, 8, 8, 5, 3, 3, 2, 2, 1 ];
